100 10
580 437
662 454
358 498
302 518
370 394
751 534
457 371
443 828
559 695
699 240
583 616
219 853
399 112
497 410
492 681
278 425
605 481
447 844
538 396
702 863
469 393
756 433
564 433
453 352
620 384
550 297
540 330
656 387
589 318
472 325
389 780
834 266
423 759
596 90
327 381
252 548
722 252
721 466
720 328
402 728
586 267
191 663
544 664
793 655
775 542
813 691
453 702
296 873
345 417
583 321
192 695
352 885
234 570
463 135
591 229
786 636
547 201
442 297
885 457
418 337
359 603
534 136
593 689
554 513
601 330
392 483
565 614
730 226
401 386
546 192
879 326
325 620
860 733
243 615
611 589
591 104
351 467
648 432
645 594
513 425
729 326
570 646
766 394
546 316
502 121
598 667
195 776
665 679
475 385
896 725
746 464
149 538
422 188
396 210
663 321
228 509
653 662
693 156
746 352
286 802
